JOBS = 1..5;
MACHINES = 1..3;
SPEED = 1;
time = array3d(JOBS,MACHINES,1..SPEED,[97,97,83,65,99,42,86,62,59,58,21,49,70,69,89]);
energy = array3d(JOBS,MACHINES,1..SPEED,[37,37,43,52,37,65,42,53,55,55,81,61,49,50,41]);
precedence = array2d(JOBS,MACHINES,[2,1,0,0,1,2,2,0,1,0,2,1,0,2,1]);
ME = 1;
TE = 100;
st_old = array2d(JOBS,MACHINES,[279,83,0,58,208,307,193,0,134,0,180,83,123,307,218]);
SpeedScaling = array2d(JOBS,MACHINES,[1,1,1,1,1,1,1,1,1,1,1,1,1,1,1]);
